
Gurobi 7.5.1 (linux64) logging started Tue Oct  3 11:40:18 2017

Academic license - for non-commercial use only

Gurobi Optimizer version 7.5.1 build v7.5.1rc0 (linux64)
Copyright (c) 2017, Gurobi Optimization, Inc.

Read LP format model from file ./coins.lp
Reading time = 0.00 seconds
: 4 rows, 9 columns, 16 nonzeros
Optimize a model with 4 rows, 9 columns and 16 nonzeros
Variable types: 4 continuous, 5 integer (0 binary)
Coefficient statistics:
  Matrix range     [6e-02, 7e+00]
  Objective range  [1e-02, 1e+00]
  Bounds range     [5e+01, 1e+03]
  RHS range        [0e+00, 0e+00]
Found heuristic solution: objective -0
Presolve removed 1 rows and 5 columns
Presolve time: 0.00s
Presolved: 3 rows, 4 columns, 9 nonzeros
Variable types: 0 continuous, 4 integer (0 binary)

Root relaxation: objective 1.134615e+02, 2 iterations, 0.00 seconds

    Nodes    |    Current Node    |     Objective Bounds      |     Work
 Expl Unexpl |  Obj  Depth IntInf | Incumbent    BestBd   Gap | It/Node Time

     0     0  113.46154    0    1   -0.00000  113.46154      -     -    0s
H    0     0                     113.4500000  113.46154  0.01%     -    0s

Explored 1 nodes (2 simplex iterations) in 0.00 seconds
Thread count was 4 (of 4 available processors)

Solution count 2: 113.45 -0 

Optimal solution found (tolerance 1.00e-04)
Best objective 1.134500000000e+02, best bound 1.134600000000e+02, gap 0.0088%

Gurobi 7.5.1 (linux64) logging started Tue Oct  3 11:43:36 2017

Academic license - for non-commercial use only

Gurobi Optimizer version 7.5.1 build v7.5.1rc0 (linux64)
Copyright (c) 2017, Gurobi Optimization, Inc.

Read LP format model from file ./coins.lp
Reading time = 0.00 seconds
: 4 rows, 9 columns, 16 nonzeros
Optimize a model with 4 rows, 9 columns and 16 nonzeros
Variable types: 4 continuous, 5 integer (0 binary)
Coefficient statistics:
  Matrix range     [6e-02, 7e+00]
  Objective range  [1e-02, 1e+00]
  Bounds range     [5e+01, 1e+03]
  RHS range        [0e+00, 0e+00]
Found heuristic solution: objective -0
Presolve removed 1 rows and 5 columns
Presolve time: 0.00s
Presolved: 3 rows, 4 columns, 9 nonzeros
Variable types: 0 continuous, 4 integer (0 binary)

Root relaxation: objective 1.134615e+02, 2 iterations, 0.00 seconds

    Nodes    |    Current Node    |     Objective Bounds      |     Work
 Expl Unexpl |  Obj  Depth IntInf | Incumbent    BestBd   Gap | It/Node Time

     0     0  113.46154    0    1   -0.00000  113.46154      -     -    0s
H    0     0                     113.4500000  113.46154  0.01%     -    0s

Explored 1 nodes (2 simplex iterations) in 0.00 seconds
Thread count was 4 (of 4 available processors)

Solution count 2: 113.45 -0 

Optimal solution found (tolerance 1.00e-04)
Best objective 1.134500000000e+02, best bound 1.134600000000e+02, gap 0.0088%

Wrote result file 'coins.sol'


Gurobi 7.5.1 (linux64, Python) logging started Tue Oct  3 11:45:20 2017

Academic license - for non-commercial use only
Read LP format model from file ./coins.lp
Reading time = 0.00 seconds
: 4 rows, 9 columns, 16 nonzeros
Optimize a model with 4 rows, 9 columns and 16 nonzeros
Variable types: 4 continuous, 5 integer (0 binary)
Coefficient statistics:
  Matrix range     [6e-02, 7e+00]
  Objective range  [1e-02, 1e+00]
  Bounds range     [5e+01, 1e+03]
  RHS range        [0e+00, 0e+00]
Found heuristic solution: objective -0
Presolve removed 1 rows and 5 columns
Presolve time: 0.00s
Presolved: 3 rows, 4 columns, 9 nonzeros
Variable types: 0 continuous, 4 integer (0 binary)

Root relaxation: objective 1.134615e+02, 2 iterations, 0.00 seconds

    Nodes    |    Current Node    |     Objective Bounds      |     Work
 Expl Unexpl |  Obj  Depth IntInf | Incumbent    BestBd   Gap | It/Node Time

     0     0  113.46154    0    1   -0.00000  113.46154      -     -    0s
H    0     0                     113.4500000  113.46154  0.01%     -    0s

Explored 1 nodes (2 simplex iterations) in 0.00 seconds
Thread count was 4 (of 4 available processors)

Solution count 2: 113.45 -0 

Optimal solution found (tolerance 1.00e-04)
Best objective 1.134500000000e+02, best bound 1.134600000000e+02, gap 0.0088%
